
ASes= { 1, 2, 3, 4, 5, 6, 7, 8, 9, 10, 11 } ;


Objects= { 1, 2, 3, 4, 5, 6, 7, 8, 9, 10, 11, 12, 13, 14, 15, 16, 17, 18, 19, 20, 21, 22, 23, 24, 25, 26, 27, 28, 29, 30, 31, 32, 33, 34, 35, 36, 37, 38, 39, 40, 41, 42, 43, 44, 45, 46, 47, 48, 49, 50, 51, 52, 53, 54, 55, 56, 57, 58, 59, 60, 61, 62, 63, 64, 65, 66, 67, 68, 69, 70, 71, 72, 73, 74, 75, 76, 77, 78, 79, 80, 81, 82, 83, 84, 85, 86, 87, 88, 89, 90, 91, 92, 93, 94, 95, 96, 97, 98, 99, 100 } ;


QualityLevels= { 0, 1, 2, 3, 4, 5 } ;

Arcs = {<2,1,490000>, <1,2,490000>, <11,1,490000>, <1,11,490000>, <11,2,490000>, <2,11,490000>, <11,10,490000>, <10,11,490000>, <3,2,490000>, <2,3,490000>, <4,3,490000>, <3,4,490000>, <5,4,490000>, <4,5,490000>, <6,5,490000>, <5,6,490000>, <7,6,490000>, <6,7,490000>, <8,4,490000>, <4,8,490000>, <8,7,490000>, <7,8,490000>, <9,3,490000>, <3,9,490000>, <9,8,490000>, <8,9,490000>, <10,9,490000>, <9,10,490000>};


RatePerQuality= [ 0  300  700  1500  2500  3500 ] ;


CacheSpacePerQuality= [ 10000  11.25  26.25  56.25  93.75  131.25 ] ;


UtilityPerQuality= [ 0  0.2  0.4  0.6  0.8  1 ] ;


ObjectsPublishedByProducers=[ [ 0  0  0  0  0  0  0  1  0  0  0 ]  [ 0  0  0  0  0  0  0  1  0  0  0 ]  [ 0  0  0  0  0  0  0  1  0  0  0 ]  [ 0  0  0  0  0  0  0  1  0  0  0 ]  [ 0  0  0  0  0  0  0  1  0  0  0 ]  [ 0  0  0  0  0  0  0  1  0  0  0 ]  [ 0  0  0  0  0  0  0  1  0  0  0 ]  [ 0  0  0  0  0  0  0  1  0  0  0 ]  [ 0  0  0  0  0  0  0  1  0  0  0 ]  [ 0  0  0  0  0  0  0  1  0  0  0 ]  [ 0  0  0  0  0  0  0  1  0  0  0 ]  [ 0  0  0  0  0  0  0  1  0  0  0 ]  [ 0  0  0  0  0  0  0  1  0  0  0 ]  [ 0  0  0  0  0  0  0  1  0  0  0 ]  [ 0  0  0  0  0  0  0  1  0  0  0 ]  [ 0  0  0  0  0  0  0  1  0  0  0 ]  [ 0  0  0  0  0  0  0  1  0  0  0 ]  [ 0  0  0  0  0  0  0  1  0  0  0 ]  [ 0  0  0  0  0  0  0  1  0  0  0 ]  [ 0  0  0  0  0  0  0  1  0  0  0 ]  [ 0  0  0  0  0  0  0  1  0  0  0 ]  [ 0  0  0  0  0  0  0  1  0  0  0 ]  [ 0  0  0  0  0  0  0  1  0  0  0 ]  [ 0  0  0  0  0  0  0  1  0  0  0 ]  [ 0  0  0  0  0  0  0  1  0  0  0 ]  [ 0  0  0  0  0  0  0  1  0  0  0 ]  [ 0  0  0  0  0  0  0  1  0  0  0 ]  [ 0  0  0  0  0  0  0  1  0  0  0 ]  [ 0  0  0  0  0  0  0  1  0  0  0 ]  [ 0  0  0  0  0  0  0  1  0  0  0 ]  [ 0  0  0  0  0  0  0  1  0  0  0 ]  [ 0  0  0  0  0  0  0  1  0  0  0 ]  [ 0  0  0  0  0  0  0  1  0  0  0 ]  [ 0  0  0  0  0  0  0  1  0  0  0 ]  [ 0  0  0  0  0  0  0  1  0  0  0 ]  [ 0  0  0  0  0  0  0  1  0  0  0 ]  [ 0  0  0  0  0  0  0  1  0  0  0 ]  [ 0  0  0  0  0  0  0  1  0  0  0 ]  [ 0  0  0  0  0  0  0  1  0  0  0 ]  [ 0  0  0  0  0  0  0  1  0  0  0 ]  [ 0  0  0  0  0  0  0  1  0  0  0 ]  [ 0  0  0  0  0  0  0  1  0  0  0 ]  [ 0  0  0  0  0  0  0  1  0  0  0 ]  [ 0  0  0  0  0  0  0  1  0  0  0 ]  [ 0  0  0  0  0  0  0  1  0  0  0 ]  [ 0  0  0  0  0  0  0  1  0  0  0 ]  [ 0  0  0  0  0  0  0  1  0  0  0 ]  [ 0  0  0  0  0  0  0  1  0  0  0 ]  [ 0  0  0  0  0  0  0  1  0  0  0 ]  [ 0  0  0  0  0  0  0  1  0  0  0 ]  [ 0  0  0  0  0  0  0  1  0  0  0 ]  [ 0  0  0  0  0  0  0  1  0  0  0 ]  [ 0  0  0  0  0  0  0  1  0  0  0 ]  [ 0  0  0  0  0  0  0  1  0  0  0 ]  [ 0  0  0  0  0  0  0  1  0  0  0 ]  [ 0  0  0  0  0  0  0  1  0  0  0 ]  [ 0  0  0  0  0  0  0  1  0  0  0 ]  [ 0  0  0  0  0  0  0  1  0  0  0 ]  [ 0  0  0  0  0  0  0  1  0  0  0 ]  [ 0  0  0  0  0  0  0  1  0  0  0 ]  [ 0  0  0  0  0  0  0  1  0  0  0 ]  [ 0  0  0  0  0  0  0  1  0  0  0 ]  [ 0  0  0  0  0  0  0  1  0  0  0 ]  [ 0  0  0  0  0  0  0  1  0  0  0 ]  [ 0  0  0  0  0  0  0  1  0  0  0 ]  [ 0  0  0  0  0  0  0  1  0  0  0 ]  [ 0  0  0  0  0  0  0  1  0  0  0 ]  [ 0  0  0  0  0  0  0  1  0  0  0 ]  [ 0  0  0  0  0  0  0  1  0  0  0 ]  [ 0  0  0  0  0  0  0  1  0  0  0 ]  [ 0  0  0  0  0  0  0  1  0  0  0 ]  [ 0  0  0  0  0  0  0  1  0  0  0 ]  [ 0  0  0  0  0  0  0  1  0  0  0 ]  [ 0  0  0  0  0  0  0  1  0  0  0 ]  [ 0  0  0  0  0  0  0  1  0  0  0 ]  [ 0  0  0  0  0  0  0  1  0  0  0 ]  [ 0  0  0  0  0  0  0  1  0  0  0 ]  [ 0  0  0  0  0  0  0  1  0  0  0 ]  [ 0  0  0  0  0  0  0  1  0  0  0 ]  [ 0  0  0  0  0  0  0  1  0  0  0 ]  [ 0  0  0  0  0  0  0  1  0  0  0 ]  [ 0  0  0  0  0  0  0  1  0  0  0 ]  [ 0  0  0  0  0  0  0  1  0  0  0 ]  [ 0  0  0  0  0  0  0  1  0  0  0 ]  [ 0  0  0  0  0  0  0  1  0  0  0 ]  [ 0  0  0  0  0  0  0  1  0  0  0 ]  [ 0  0  0  0  0  0  0  1  0  0  0 ]  [ 0  0  0  0  0  0  0  1  0  0  0 ]  [ 0  0  0  0  0  0  0  1  0  0  0 ]  [ 0  0  0  0  0  0  0  1  0  0  0 ]  [ 0  0  0  0  0  0  0  1  0  0  0 ]  [ 0  0  0  0  0  0  0  1  0  0  0 ]  [ 0  0  0  0  0  0  0  1  0  0  0 ]  [ 0  0  0  0  0  0  0  1  0  0  0 ]  [ 0  0  0  0  0  0  0  1  0  0  0 ]  [ 0  0  0  0  0  0  0  1  0  0  0 ]  [ 0  0  0  0  0  0  0  1  0  0  0 ]  [ 0  0  0  0  0  0  0  1  0  0  0 ]  [ 0  0  0  0  0  0  0  1  0  0  0 ]  [ 0  0  0  0  0  0  0  1  0  0  0 ] ];

ObjRequests = {  <1,5,720>, <2,5,85>, <3,5,56>, <4,5,14>, <5,5,38>, <6,5,26>, <7,5,19>, <8,5,13>, <9,5,60>, <10,5,15>, <11,5,33>, <12,5,6>, <13,5,34>, <14,5,16>, <15,5,3>, <16,5,39>, <17,5,21>, <18,5,21>, <19,5,21>, <20,5,5>, <21,5,41>, <22,5,50>, <23,5,2>, <24,5,22>, <25,5,6>, <27,5,1>, <28,5,15>, <29,5,9>, <30,5,6>, <31,5,7>, <32,5,9>, <33,5,9>, <34,5,27>, <35,5,18>, <37,5,21>, <38,5,28>, <39,5,4>, <40,5,14>, <41,5,5>, <42,5,8>, <43,5,13>, <44,5,4>, <45,5,16>, <46,5,6>, <48,5,3>, <49,5,8>, <50,5,3>, <51,5,4>, <53,5,6>, <54,5,1>, <55,5,2>, <57,5,7>, <58,5,3>, <59,5,8>, <60,5,6>, <61,5,3>, <62,5,3>, <63,5,7>, <64,5,9>, <65,5,4>, <66,5,8>, <67,5,7>, <68,5,3>, <69,5,15>, <70,5,5>, <71,5,4>, <72,5,6>, <74,5,3>, <75,5,8>, <76,5,2>, <77,5,2>, <78,5,5>, <79,5,1>, <80,5,4>, <81,5,1>, <82,5,5>, <83,5,5>, <84,5,4>, <85,5,3>, <86,5,9>, <87,5,8>, <88,5,2>, <90,5,3>, <91,5,3>, <92,5,1>, <93,5,20>, <94,5,6>, <95,5,3>, <96,5,2>, <97,5,2>, <98,5,4>, <99,5,3>, <100,5,3>, <1,6,142>, <2,6,205>, <3,6,55>, <4,6,23>, <5,6,27>, <6,6,91>, <7,6,15>, <8,6,90>, <9,6,28>, <10,6,23>, <11,6,25>, <12,6,6>, <13,6,6>, <14,6,9>, <15,6,42>, <16,6,2>, <17,6,10>, <18,6,11>, <19,6,5>, <20,6,24>, <21,6,3>, <22,6,2>, <23,6,55>, <24,6,13>, <25,6,3>, <26,6,1>, <27,6,2>, <28,6,23>, <29,6,5>, <30,6,10>, <31,6,4>, <32,6,12>, <33,6,13>, <34,6,2>, <35,6,2>, <36,6,1>, <37,6,2>, <38,6,7>, <39,6,3>, <40,6,8>, <41,6,11>, <42,6,4>, <43,6,14>, <44,6,2>, <45,6,7>, <46,6,2>, <47,6,7>, <48,6,15>, <49,6,5>, <50,6,1>, <51,6,9>, <52,6,3>, <53,6,4>, <54,6,7>, <55,6,2>, <56,6,8>, <57,6,1>, <58,6,6>, <59,6,2>, <60,6,2>, <61,6,4>, <62,6,10>, <63,6,4>, <64,6,4>, <65,6,5>, <66,6,7>, <67,6,3>, <68,6,1>, <69,6,5>, <70,6,2>, <71,6,5>, <73,6,1>, <74,6,2>, <75,6,1>, <76,6,2>, <77,6,4>, <78,6,10>, <81,6,1>, <82,6,4>, <83,6,4>, <84,6,5>, <85,6,2>, <87,6,2>, <88,6,5>, <89,6,10>, <90,6,2>, <91,6,9>, <92,6,1>, <93,6,4>, <94,6,9>, <95,6,5>, <96,6,8>, <97,6,5>, <98,6,1>, <99,6,2>, <100,6,5>, <1,7,203>, <2,7,433>, <3,7,114>, <4,7,51>, <5,7,104>, <6,7,120>, <7,7,20>, <8,7,21>, <9,7,24>, <10,7,34>, <11,7,3>, <12,7,63>, <13,7,42>, <14,7,74>, <15,7,5>, <16,7,12>, <17,7,18>, <18,7,2>, <19,7,33>, <20,7,17>, <21,7,1>, <22,7,14>, <23,7,18>, <24,7,11>, <25,7,2>, <26,7,17>, <27,7,3>, <28,7,8>, <29,7,47>, <30,7,9>, <31,7,2>, <32,7,13>, <33,7,18>, <34,7,3>, <36,7,7>, <37,7,2>, <38,7,3>, <40,7,8>, <41,7,2>, <42,7,12>, <43,7,3>, <44,7,1>, <46,7,9>, <47,7,8>, <48,7,9>, <49,7,9>, <50,7,8>, <51,7,11>, <52,7,2>, <53,7,14>, <54,7,5>, <55,7,21>, <56,7,5>, <57,7,1>, <58,7,9>, <59,7,8>, <60,7,6>, <61,7,9>, <62,7,8>, <63,7,7>, <64,7,11>, <65,7,4>, <66,7,1>, <67,7,1>, <70,7,7>, <71,7,12>, <72,7,2>, <74,7,4>, <75,7,3>, <76,7,2>, <77,7,3>, <78,7,2>, <79,7,9>, <80,7,1>, <81,7,7>, <82,7,1>, <83,7,12>, <84,7,3>, <85,7,6>, <87,7,1>, <88,7,1>, <91,7,3>, <92,7,12>, <93,7,1>, <94,7,2>, <95,7,4>, <96,7,6>, <97,7,3>, <98,7,5>, <99,7,3>, <100,7,8>, <1,1,282>, <2,1,41>, <3,1,300>, <4,1,320>, <5,1,29>, <6,1,3>, <7,1,83>, <8,1,62>, <9,1,23>, <10,1,92>, <11,1,38>, <12,1,2>, <13,1,8>, <14,1,30>, <15,1,42>, <16,1,19>, <17,1,27>, <18,1,5>, <19,1,2>, <20,1,38>, <21,1,23>, <22,1,2>, <23,1,1>, <24,1,4>, <25,1,28>, <26,1,10>, <27,1,25>, <28,1,3>, <29,1,4>, <30,1,9>, <31,1,20>, <32,1,2>, <33,1,1>, <35,1,22>, <36,1,3>, <37,1,17>, <38,1,8>, <39,1,28>, <40,1,10>, <41,1,22>, <43,1,6>, <44,1,19>, <45,1,6>, <46,1,1>, <47,1,9>, <48,1,2>, <49,1,9>, <50,1,6>, <51,1,3>, <52,1,1>, <53,1,1>, <54,1,2>, <55,1,3>, <56,1,12>, <57,1,14>, <59,1,7>, <62,1,8>, <63,1,4>, <64,1,6>, <65,1,3>, <66,1,4>, <67,1,8>, <68,1,1>, <69,1,4>, <70,1,4>, <71,1,11>, <72,1,10>, <74,1,8>, <75,1,1>, <76,1,5>, <77,1,8>, <78,1,4>, <79,1,2>, <80,1,3>, <81,1,2>, <82,1,1>, <84,1,8>, <85,1,3>, <86,1,3>, <87,1,5>, <88,1,5>, <90,1,9>, <91,1,1>, <92,1,3>, <93,1,1>, <94,1,1>, <95,1,3>, <96,1,4>, <97,1,3>, <98,1,2>, <99,1,3>, <1,10,186>, <2,10,38>, <3,10,23>, <4,10,7>, <5,10,115>, <7,10,72>, <8,10,7>, <9,10,33>, <10,10,8>, <11,10,50>, <12,10,26>, <13,10,22>, <14,10,17>, <15,10,19>, <16,10,18>, <17,10,7>, <18,10,55>, <19,10,9>, <20,10,6>, <21,10,1>, <22,10,1>, <23,10,5>, <24,10,3>, <25,10,13>, <26,10,33>, <27,10,33>, <28,10,9>, <29,10,5>, <30,10,21>, <31,10,10>, <32,10,15>, <33,10,9>, <34,10,16>, <35,10,1>, <36,10,25>, <37,10,3>, <38,10,2>, <39,10,2>, <40,10,4>, <41,10,4>, <42,10,11>, <43,10,3>, <44,10,16>, <45,10,2>, <46,10,7>, <47,10,16>, <48,10,4>, <49,10,7>, <50,10,4>, <51,10,1>, <52,10,24>, <53,10,1>, <54,10,7>, <55,10,1>, <56,10,9>, <57,10,1>, <58,10,11>, <59,10,4>, <60,10,22>, <61,10,4>, <62,10,2>, <63,10,5>, <65,10,8>, <66,10,3>, <67,10,4>, <68,10,20>, <69,10,2>, <70,10,4>, <71,10,1>, <72,10,6>, <73,10,15>, <74,10,8>, <75,10,3>, <76,10,5>, <77,10,2>, <79,10,1>, <80,10,10>, <81,10,3>, <82,10,2>, <83,10,4>, <84,10,2>, <85,10,4>, <86,10,5>, <87,10,1>, <88,10,1>, <89,10,4>, <90,10,3>, <91,10,4>, <92,10,1>, <93,10,1>, <94,10,1>, <95,10,7>, <96,10,3>, <97,10,1>, <98,10,5>, <99,10,3>, <100,10,1> };

MaxCacheStorageAtSingleAS= [ 131.25  131.25  131.25  131.25  131.25  131.25  131.25  131.25  131.25  131.25  131.25 ] ;

MaxCacheStorage = 1443.75 ;
SolutionGap = 0.01 ;
